; 
(set-info :status )
(set-logic LIA)
(assert
 (exists ((y0 Int) (q0 Int) (z0t Int) (z1t Int) (z2t Int) (z3t Int) (z4t Int) (z5t Int) (z0p Int) (z1p Int) (z2p Int) (z3p Int) (z4p Int) (z5p Int) (z0it Int) (z1it Int) (z2it Int) (z3it Int) (z4it Int) (z5it Int) )(let (($x1022 (= q0 1)))
(let (($x1675 (exists ((y1 Int) )(let (($x1671 (exists ((y3 Int) )(let (($x1430 (forall ((y2 Int) )(let (($x1428 (exists ((q3 Int) )(let (($x1030 (exists ((p0 Int) (p1 Int) (p2 Int) (p3 Int) (p4 Int) )(let (($x923 (or (and (= 4 (mod (- y2 p0) 1)) (= q3 4)))))
(let (($x1022 (= z2p 1)))
(let (($x926 (<= p0 y2)))
(let (($x1044 (or (and (= 1 q3) $x1022) (and (= 2 q3) (= z2p 2)) (and (= 3 q3) (= z2p 3)) (and (= 4 q3) (= z2p 4)))))
(let (($x1045 (= z2t 0)))
(let (($x928 (= y2 p0)))
(let (($x1048 (= z2t 1)))
(let (($x930 (< y2 p1)))
(let (($x936 (or (and (= 4 (mod (- y2 p1) 1)) (= q3 4)))))
(let (($x1050 (= z3p 1)))
(let (($x939 (<= p1 y2)))
(let (($x1062 (or (and (= 1 q3) $x1050) (and (= 2 q3) (= z3p 2)) (and (= 3 q3) (= z3p 3)) (and (= 4 q3) (= z3p 4)))))
(let (($x1063 (= z3t 0)))
(let (($x941 (= y2 p1)))
(let (($x1066 (= z3t 1)))
(let (($x943 (< y2 p2)))
(let (($x949 (or (and (= 4 (mod (- y2 p2) 1)) (= q3 4)))))
(let (($x1068 (= z4p 1)))
(let (($x952 (<= p2 y2)))
(let (($x1080 (or (and (= 1 q3) $x1068) (and (= 2 q3) (= z4p 2)) (and (= 3 q3) (= z4p 3)) (and (= 4 q3) (= z4p 4)))))
(let (($x1081 (= z4t 0)))
(let (($x954 (= y2 p2)))
(let (($x1082 (<= 2 z1p)))
(let (($x962 (or (and (= 4 (mod (- y2 p3) 1)) (= q3 4)))))
(let (($x1086 (= z5p 1)))
(let (($x965 (<= p3 y2)))
(let (($x1098 (or (and (= 1 q3) $x1086) (and (= 2 q3) (= z5p 2)) (and (= 3 q3) (= z5p 3)) (and (= 4 q3) (= z5p 4)))))
(let (($x1099 (= z5t 0)))
(let (($x967 (= y2 p3)))
(let (($x1100 (<= 3 z1p)))
(let (($x1104 (or (and $x1100 $x965 (< y2 p4) (= z5t 1) (or (and $x1086 $x962))) (and $x1100 $x967 $x1099 $x1098) (and (= 3 z1p) $x965 (or (and $x1086 $x962))) (and $x1082 $x952 (< y2 p3) (= z4t 1) (or (and $x1068 $x949))) (and $x1082 $x954 $x1081 $x1080) (and (= 2 z1p) $x952 (or (and $x1068 $x949))) (and (<= 1 z1p) $x939 $x943 $x1066 (or (and $x1050 $x936))) (and (<= 1 z1p) $x941 $x1063 $x1062) (and (= 1 z1p) $x939 (or (and $x1050 $x936))) (and (<= 0 z1p) $x926 $x930 $x1048 (or (and $x1022 $x923))) (and (<= 0 z1p) $x928 $x1045 $x1044) (and (= 0 z1p) $x926 (or (and $x1022 $x923))))))
(let (($x1112 (or (and $x1045 $x1022 (= p1 (+ (* 1 z2it) p0))) (and $x1045 (= z2p 2) (= p1 (+ (* 1 z2it) p0))) (and $x1045 (= z2p 3) (= p1 (+ (* 1 z2it) p0))) (and $x1045 (= z2p 4) (= p1 (+ (* 1 z2it) p0))))))
(let (($x1117 (=> (< 1 z1t) (or (or (and $x1048 $x1022 (= p1 (+ (* 1 z2it) p0)))) $x1112))))
(let (($x1125 (or (and $x1063 $x1050 (= p2 (+ (* 1 z3it) p1))) (and $x1063 (= z3p 2) (= p2 (+ (* 1 z3it) p1))) (and $x1063 (= z3p 3) (= p2 (+ (* 1 z3it) p1))) (and $x1063 (= z3p 4) (= p2 (+ (* 1 z3it) p1))))))
(let (($x1130 (=> (< 2 z1t) (or (or (and $x1066 $x1050 (= p2 (+ (* 1 z3it) p1)))) $x1125))))
(let (($x1138 (or (and $x1081 $x1068 (= p3 (+ (* 1 z4it) p2))) (and $x1081 (= z4p 2) (= p3 (+ (* 1 z4it) p2))) (and $x1081 (= z4p 3) (= p3 (+ (* 1 z4it) p2))) (and $x1081 (= z4p 4) (= p3 (+ (* 1 z4it) p2))))))
(let (($x1141 (or (or (and (= z4t 1) $x1068 (= p3 (+ (* 1 z4it) p2)))) $x1138)))
(let (($x1151 (or (and $x1099 $x1086 (= p4 (+ (* 1 z5it) p3))) (and $x1099 (= z5p 2) (= p4 (+ (* 1 z5it) p3))) (and $x1099 (= z5p 3) (= p4 (+ (* 1 z5it) p3))) (and $x1099 (= z5p 4) (= p4 (+ (* 1 z5it) p3))))))
(let (($x1154 (or (or (and (= z5t 1) $x1086 (= p4 (+ (* 1 z5it) p3)))) $x1151)))
(let (($x1166 (or (and $x1045 $x1022 (= 1 q0)) (and $x1045 (= z2p 2) (= 2 q0)) (and $x1045 (= z2p 3) (= 3 q0)) (and $x1045 (= z2p 4) (= 4 q0)) (and $x1048 $x1022 (= 4 q0)))))
(let (($x581 (= p0 0)))
(let (($x1167 (and $x581 $x1166 (=> (< 4 z1t) $x1154) (=> (< 3 z1t) $x1141) $x1130 $x1117)))
(let ((?x1172 (+ z1p 1)))
(let (($x1173 (<= 2 ?x1172)))
(let (($x1193 (and (=> (<= 5 ?x1172) (and (> z5it 0) (=> $x1099 (= z5it 1)))) (=> (<= 4 ?x1172) (and (> z4it 0) (=> $x1081 (= z4it 1)))) (=> (<= 3 ?x1172) (and (> z3it 0) (=> $x1063 (= z3it 1)))) (=> $x1173 (and (> z2it 0) (=> $x1045 (= z2it 1)))))))
(let (($x1214 (or (and (= 1 z2t) (= 1 z2p) (= 1 z3t) (= 1 z3p)) (and (= 1 z2t) (= 1 z2p) (= 0 z3t) (= 4 z3p)) (and (= 0 z2t) (= 2 z2p) (= 1 z3t) (= 1 z3p)) (and (= 0 z2t) (= 3 z2p) (= 1 z3t) (= 1 z3p)) (and (= 0 z2t) (= 4 z2p) (= 1 z3t) (= 1 z3p)) (and (= 0 z2t) (= 1 z2p) (= 0 z3t) (= 2 z3p)) (and (= 0 z2t) (= 2 z2p) (= 0 z3t) (= 4 z3p)) (and (= 0 z2t) (= 3 z2p) (= 0 z3t) (= 4 z3p)) (and (= 0 z2t) (= 4 z2p) (= 0 z3t) (= 4 z3p)))))
(let (($x1231 (or (and (= 1 z3t) (= 1 z3p) (= 1 z4t) (= 1 z4p)) (and (= 1 z3t) (= 1 z3p) (= 0 z4t) (= 4 z4p)) (and (= 0 z3t) (= 2 z3p) (= 1 z4t) (= 1 z4p)) (and (= 0 z3t) (= 3 z3p) (= 1 z4t) (= 1 z4p)) (and (= 0 z3t) (= 4 z3p) (= 1 z4t) (= 1 z4p)) (and (= 0 z3t) (= 1 z3p) (= 0 z4t) (= 2 z4p)) (and (= 0 z3t) (= 2 z3p) (= 0 z4t) (= 4 z4p)) (and (= 0 z3t) (= 3 z3p) (= 0 z4t) (= 4 z4p)) (and (= 0 z3t) (= 4 z3p) (= 0 z4t) (= 4 z4p)))))
(let (($x1248 (or (and (= 1 z4t) (= 1 z4p) (= 1 z5t) (= 1 z5p)) (and (= 1 z4t) (= 1 z4p) (= 0 z5t) (= 4 z5p)) (and (= 0 z4t) (= 2 z4p) (= 1 z5t) (= 1 z5p)) (and (= 0 z4t) (= 3 z4p) (= 1 z5t) (= 1 z5p)) (and (= 0 z4t) (= 4 z4p) (= 1 z5t) (= 1 z5p)) (and (= 0 z4t) (= 1 z4p) (= 0 z5t) (= 2 z5p)) (and (= 0 z4t) (= 2 z4p) (= 0 z5t) (= 4 z5p)) (and (= 0 z4t) (= 3 z4p) (= 0 z5t) (= 4 z5p)) (and (= 0 z4t) (= 4 z4p) (= 0 z5t) (= 4 z5p)))))
(let (($x1270 (and (=> (<= 5 ?x1172) (or (not (= z2p z5p)) (not (= z2t z5t)))) (=> (<= 4 ?x1172) (or (not (= z2p z4p)) (not (= z2t z4t)))) (=> (<= 3 ?x1172) (or (not (= z2p z3p)) (not (= z2t z3t)))))))
(let (($x1290 (and (=> (<= 5 ?x1172) (or (not (= z3p z5p)) (not (= z3t z5t)))) (=> (<= 4 ?x1172) (or (not (= z3p z4p)) (not (= z3t z4t)))) (=> $x1173 (or (not (= z3p z2p)) (not (= z3t z2t)))))))
(let (($x1179 (<= 3 ?x1172)))
(let (($x1310 (and (=> (<= 5 ?x1172) (or (not (= z4p z5p)) (not (= z4t z5t)))) (=> $x1179 (or (not (= z4p z3p)) (not (= z4t z3t)))) (=> $x1173 (or (not (= z4p z2p)) (not (= z4t z2t)))))))
(let (($x1185 (<= 4 ?x1172)))
(let (($x1330 (and (=> $x1185 (or (not (= z5p z4p)) (not (= z5t z4t)))) (=> $x1179 (or (not (= z5p z3p)) (not (= z5t z3t)))) (=> $x1173 (or (not (= z5p z2p)) (not (= z5t z2t)))))))
(let (($x1191 (<= 5 ?x1172)))
(let (($x1341 (and (=> (= 5 ?x1172) (= z5t 1)) (=> (= 4 ?x1172) (= z4t 1)) (=> (= 3 ?x1172) $x1066) (=> (= 2 ?x1172) $x1048))))
(let (($x1348 (=> (and (<= 1 ?x1172) (= z1t 1)) (and (<= z1p 1) (>= z1p 1)))))
(let (($x1369 (and (=> (and $x1191 (= z5t 1)) (and (<= z5p 1) (>= z5p 1))) (=> (and $x1185 (= z4t 1)) (and (<= z4p 1) (>= z4p 1))) (=> (and $x1179 $x1066) (and (<= z3p 1) (>= z3p 1))) (=> (and $x1173 $x1048) (and (<= z2p 1) (>= z2p 1))) $x1348)))
(let (($x1386 (and (=> (and $x1191 $x1099) (and (<= z5p 4) (>= z5p 1))) (=> (and $x1185 $x1081) (and (<= z4p 4) (>= z4p 1))) (=> (and $x1179 $x1063) (and (<= z3p 4) (>= z3p 1))) (=> (and $x1173 $x1045) (and (<= z2p 4) (>= z2p 1))))))
(let (($x1395 (and (and (<= z5t 1)) (and (<= z4t 1)) (and (<= z3t 1)) (and (<= z2t 1)))))
(let (($x1406 (=> (< ?x1172 2) (and (= z2t z2p) (= z2p z2it) (= z2it 0)))))
(let (($x1412 (=> (< ?x1172 3) (and (= z3t z3p) (= z3p z3it) (= z3it 0)))))
(let (($x1418 (=> (< ?x1172 4) (and (= z4t z4p) (= z4p z4it) (= z4it 0)))))
(let (($x1424 (=> (< ?x1172 5) (and (= z5t z5p) (= z5p z5it) (= z5it 0)))))
(let (($x1425 (and $x1424 $x1418 $x1412 $x1406 (and (= z1t z1p) (= z1it z1p) (> z1p 0) (< z1p 5)))))
(let (($x1426 (and $x1425 $x1395 $x1386 $x1369 $x1341 (and (=> $x1191 $x1330) (=> $x1185 $x1310) (=> $x1179 $x1290) (=> $x1173 $x1270)) (and (=> (<= 4 z1p) $x1248) (=> $x1100 $x1231) (=> $x1082 $x1214)) $x1193)))
(and $x1426 $x1167 $x1104))))))))))))))))))))))))))))))))))))))))))))))))))))))))))))))))))))
))
(let (($x914 (or (= 2 q3))))
(and $x914 $x1030))))
))
(=> (and (< y2 y3) (<= y1 y2)) $x1428)))
))
(let (($x1667 (exists ((q1 Int) )(let (($x1665 (exists ((p0 Int) (p1 Int) (p2 Int) (p3 Int) (p4 Int) )(let (($x923 (or (and (= 4 (mod (- y3 p0) 1)) (= q1 4)))))
(let (($x1050 (= z2p 1)))
(let (($x926 (<= p0 y3)))
(let (($x1062 (or (and (= 1 q1) $x1050) (and (= 2 q1) (= z2p 2)) (and (= 3 q1) (= z2p 3)) (and (= 4 q1) (= z2p 4)))))
(let (($x1063 (= z2t 0)))
(let (($x928 (= y3 p0)))
(let (($x1066 (= z2t 1)))
(let (($x930 (< y3 p1)))
(let (($x936 (or (and (= 4 (mod (- y3 p1) 1)) (= q1 4)))))
(let (($x1068 (= z3p 1)))
(let (($x939 (<= p1 y3)))
(let (($x1204 (= 1 z1p)))
(let (($x1080 (or (and (= 1 q1) $x1068) (and (= 2 q1) (= z3p 2)) (and (= 3 q1) (= z3p 3)) (and (= 4 q1) (= z3p 4)))))
(let (($x1081 (= z3t 0)))
(let (($x941 (= y3 p1)))
(let (($x1084 (= z3t 1)))
(let (($x943 (< y3 p2)))
(let (($x949 (or (and (= 4 (mod (- y3 p2) 1)) (= q1 4)))))
(let (($x1086 (= z4p 1)))
(let (($x952 (<= p2 y3)))
(let (($x1201 (= 2 z1p)))
(let (($x1098 (or (and (= 1 q1) $x1086) (and (= 2 q1) (= z4p 2)) (and (= 3 q1) (= z4p 3)) (and (= 4 q1) (= z4p 4)))))
(let (($x1099 (= z4t 0)))
(let (($x954 (= y3 p2)))
(let (($x1448 (<= 2 z1p)))
(let (($x962 (or (and (= 4 (mod (- y3 p3) 1)) (= q1 4)))))
(let (($x1451 (= z5p 1)))
(let (($x965 (<= p3 y3)))
(let (($x1199 (= 3 z1p)))
(let (($x1462 (or (and (= 1 q1) $x1451) (and (= 2 q1) (= z5p 2)) (and (= 3 q1) (= z5p 3)) (and (= 4 q1) (= z5p 4)))))
(let (($x1463 (= z5t 0)))
(let (($x967 (= y3 p3)))
(let (($x1464 (<= 3 z1p)))
(let (($x1468 (or (and $x1464 $x965 (< y3 p4) (= z5t 1) (or (and $x1451 $x962))) (and $x1464 $x967 $x1463 $x1462) (and $x1199 $x965 (or (and $x1451 $x962))) (and $x1448 $x952 (< y3 p3) (= z4t 1) (or (and $x1086 $x949))) (and $x1448 $x954 $x1099 $x1098) (and $x1201 $x952 (or (and $x1086 $x949))) (and (<= 1 z1p) $x939 $x943 $x1084 (or (and $x1068 $x936))) (and (<= 1 z1p) $x941 $x1081 $x1080) (and $x1204 $x939 (or (and $x1068 $x936))) (and (<= 0 z1p) $x926 $x930 $x1066 (or (and $x1050 $x923))) (and (<= 0 z1p) $x928 $x1063 $x1062) (and (= 0 z1p) $x926 (or (and $x1050 $x923))))))
(let (($x1475 (or (and $x1063 $x1050 (= p1 (+ (* 1 z2it) p0))) (and $x1063 (= z2p 2) (= p1 (+ (* 1 z2it) p0))) (and $x1063 (= z2p 3) (= p1 (+ (* 1 z2it) p0))) (and $x1063 (= z2p 4) (= p1 (+ (* 1 z2it) p0))))))
(let (($x1480 (=> (< 1 z1t) (or (or (and $x1066 $x1050 (= p1 (+ (* 1 z2it) p0)))) $x1475))))
(let (($x1487 (or (and $x1081 $x1068 (= p2 (+ (* 1 z3it) p1))) (and $x1081 (= z3p 2) (= p2 (+ (* 1 z3it) p1))) (and $x1081 (= z3p 3) (= p2 (+ (* 1 z3it) p1))) (and $x1081 (= z3p 4) (= p2 (+ (* 1 z3it) p1))))))
(let (($x1492 (=> (< 2 z1t) (or (or (and $x1084 $x1068 (= p2 (+ (* 1 z3it) p1)))) $x1487))))
(let (($x1499 (or (and $x1099 $x1086 (= p3 (+ (* 1 z4it) p2))) (and $x1099 (= z4p 2) (= p3 (+ (* 1 z4it) p2))) (and $x1099 (= z4p 3) (= p3 (+ (* 1 z4it) p2))) (and $x1099 (= z4p 4) (= p3 (+ (* 1 z4it) p2))))))
(let (($x1502 (or (or (and (= z4t 1) $x1086 (= p3 (+ (* 1 z4it) p2)))) $x1499)))
(let (($x1512 (or (and $x1463 $x1451 (= p4 (+ (* 1 z5it) p3))) (and $x1463 (= z5p 2) (= p4 (+ (* 1 z5it) p3))) (and $x1463 (= z5p 3) (= p4 (+ (* 1 z5it) p3))) (and $x1463 (= z5p 4) (= p4 (+ (* 1 z5it) p3))))))
(let (($x1515 (or (or (and (= z5t 1) $x1451 (= p4 (+ (* 1 z5it) p3)))) $x1512)))
(let (($x1527 (or (and $x1063 $x1050 (= 1 q0)) (and $x1063 (= z2p 2) (= 2 q0)) (and $x1063 (= z2p 3) (= 3 q0)) (and $x1063 (= z2p 4) (= 4 q0)) (and $x1066 $x1050 (= 4 q0)))))
(let (($x581 (= p0 0)))
(let (($x1528 (and $x581 $x1527 (=> (< 4 z1t) $x1515) (=> (< 3 z1t) $x1502) $x1492 $x1480)))
(let ((?x1529 (+ z1p 1)))
(let (($x1530 (<= 2 ?x1529)))
(let (($x1542 (and (=> (<= 5 ?x1529) (and (> z5it 0) (=> $x1463 (= z5it 1)))) (=> (<= 4 ?x1529) (and (> z4it 0) (=> $x1099 (= z4it 1)))) (=> (<= 3 ?x1529) (and (> z3it 0) (=> $x1081 (= z3it 1)))) (=> $x1530 (and (> z2it 0) (=> $x1063 (= z2it 1)))))))
(let (($x1231 (or (and (= 1 z2t) (= 1 z2p) (= 1 z3t) (= 1 z3p)) (and (= 1 z2t) (= 1 z2p) (= 0 z3t) (= 4 z3p)) (and (= 0 z2t) (= 2 z2p) (= 1 z3t) (= 1 z3p)) (and (= 0 z2t) (= 3 z2p) (= 1 z3t) (= 1 z3p)) (and (= 0 z2t) (= 4 z2p) (= 1 z3t) (= 1 z3p)) (and (= 0 z2t) (= 1 z2p) (= 0 z3t) (= 2 z3p)) (and (= 0 z2t) (= 2 z2p) (= 0 z3t) (= 4 z3p)) (and (= 0 z2t) (= 3 z2p) (= 0 z3t) (= 4 z3p)) (and (= 0 z2t) (= 4 z2p) (= 0 z3t) (= 4 z3p)))))
(let (($x1248 (or (and (= 1 z3t) (= 1 z3p) (= 1 z4t) (= 1 z4p)) (and (= 1 z3t) (= 1 z3p) (= 0 z4t) (= 4 z4p)) (and (= 0 z3t) (= 2 z3p) (= 1 z4t) (= 1 z4p)) (and (= 0 z3t) (= 3 z3p) (= 1 z4t) (= 1 z4p)) (and (= 0 z3t) (= 4 z3p) (= 1 z4t) (= 1 z4p)) (and (= 0 z3t) (= 1 z3p) (= 0 z4t) (= 2 z4p)) (and (= 0 z3t) (= 2 z3p) (= 0 z4t) (= 4 z4p)) (and (= 0 z3t) (= 3 z3p) (= 0 z4t) (= 4 z4p)) (and (= 0 z3t) (= 4 z3p) (= 0 z4t) (= 4 z4p)))))
(let (($x1560 (or (and (= 1 z4t) (= 1 z4p) (= 1 z5t) (= 1 z5p)) (and (= 1 z4t) (= 1 z4p) (= 0 z5t) (= 4 z5p)) (and (= 0 z4t) (= 2 z4p) (= 1 z5t) (= 1 z5p)) (and (= 0 z4t) (= 3 z4p) (= 1 z5t) (= 1 z5p)) (and (= 0 z4t) (= 4 z4p) (= 1 z5t) (= 1 z5p)) (and (= 0 z4t) (= 1 z4p) (= 0 z5t) (= 2 z5p)) (and (= 0 z4t) (= 2 z4p) (= 0 z5t) (= 4 z5p)) (and (= 0 z4t) (= 3 z4p) (= 0 z5t) (= 4 z5p)) (and (= 0 z4t) (= 4 z4p) (= 0 z5t) (= 4 z5p)))))
(let (($x1572 (and (=> (<= 5 ?x1529) (or (not (= z2p z5p)) (not (= z2t z5t)))) (=> (<= 4 ?x1529) (or (not (= z2p z4p)) (not (= z2t z4t)))) (=> (<= 3 ?x1529) (or (not (= z2p z3p)) (not (= z2t z3t)))))))
(let (($x1582 (and (=> (<= 5 ?x1529) (or (not (= z3p z5p)) (not (= z3t z5t)))) (=> (<= 4 ?x1529) (or (not (= z3p z4p)) (not (= z3t z4t)))) (=> $x1530 (or (not (= z3p z2p)) (not (= z3t z2t)))))))
(let (($x1532 (<= 3 ?x1529)))
(let (($x1592 (and (=> (<= 5 ?x1529) (or (not (= z4p z5p)) (not (= z4t z5t)))) (=> $x1532 (or (not (= z4p z3p)) (not (= z4t z3t)))) (=> $x1530 (or (not (= z4p z2p)) (not (= z4t z2t)))))))
(let (($x1534 (<= 4 ?x1529)))
(let (($x1612 (and (=> $x1534 (or (not (= z5p z4p)) (not (= z5t z4t)))) (=> $x1532 (or (not (= z5p z3p)) (not (= z5t z3t)))) (=> $x1530 (or (not (= z5p z2p)) (not (= z5t z2t)))))))
(let (($x1540 (<= 5 ?x1529)))
(let (($x1623 (and (=> (= 5 ?x1529) (= z5t 1)) (=> (= 4 ?x1529) (= z4t 1)) (=> (= 3 ?x1529) $x1084) (=> (= 2 ?x1529) $x1066))))
(let (($x1625 (=> (and (<= 1 ?x1529) (= z1t 1)) (and (<= z1p 1) (>= z1p 1)))))
(let (($x1634 (and (=> (and $x1540 (= z5t 1)) (and (<= z5p 1) (>= z5p 1))) (=> (and $x1534 (= z4t 1)) (and (<= z4p 1) (>= z4p 1))) (=> (and $x1532 $x1084) (and (<= z3p 1) (>= z3p 1))) (=> (and $x1530 $x1066) (and (<= z2p 1) (>= z2p 1))) $x1625)))
(let (($x1642 (and (=> (and $x1540 $x1463) (and (<= z5p 4) (>= z5p 1))) (=> (and $x1534 $x1099) (and (<= z4p 4) (>= z4p 1))) (=> (and $x1532 $x1081) (and (<= z3p 4) (>= z3p 1))) (=> (and $x1530 $x1063) (and (<= z2p 4) (>= z2p 1))))))
(let (($x1645 (and (and (<= z5t 1)) (and (<= z4t 1)) (and (<= z3t 1)) (and (<= z2t 1)))))
(let (($x1651 (=> (< ?x1529 2) (and (= z2t z2p) (= z2p z2it) (= z2it 0)))))
(let (($x1653 (=> (< ?x1529 3) (and (= z3t z3p) (= z3p z3it) (= z3it 0)))))
(let (($x1655 (=> (< ?x1529 4) (and (= z4t z4p) (= z4p z4it) (= z4it 0)))))
(let (($x1661 (=> (< ?x1529 5) (and (= z5t z5p) (= z5p z5it) (= z5it 0)))))
(let (($x1662 (and $x1661 $x1655 $x1653 $x1651 (and (= z1t z1p) (= z1it z1p) (> z1p 0) (< z1p 5)))))
(let (($x1663 (and $x1662 $x1645 $x1642 $x1634 $x1623 (and (=> $x1540 $x1612) (=> $x1534 $x1592) (=> $x1532 $x1582) (=> $x1530 $x1572)) (and (=> (<= 4 z1p) $x1560) (=> $x1464 $x1248) (=> $x1448 $x1231)) $x1542)))
(and $x1663 $x1528 $x1468)))))))))))))))))))))))))))))))))))))))))))))))))))))))))))))))))))))))
))
(let (($x646 (or (= 4 q1))))
(and $x646 $x1665))))
))
(and (and (<= y1 y3) (or $x1667 $x1667)) $x1430))))
))
(and (= (+ y0 1) y1) $x1671)))
))
(and (and $x1675 (= y0 0) $x1022)))))
)
(check-sat)
